CSW02
Position Depot: Center
Horizon for Depot: Small
Position of customers: Cluster
Distribution of the demand: Medium
Width of time windows: Wide
Distribution of the service: Large

VEHICLE 
NUMBER 	 CAPACITY 
 11 	 	 190 
 
CUSTOMER
CUST NO. 	 XCOORD.  	 YCOORD. 	 DEMAND 	 READY TIME 	 DUE DATE 	 SERVICE TIME 
 0 	 	 500 	 	 500 	 	 0 	 	 0 	 	 1787 	 	 0 
  1 	 	 709 	 	 604 	 	 85 	 	 993 	 	 1372 	 	 112 
  2 	 	 826 	 	 665 	 	 1 	 	 1482 	 	 1787 	 	 114 
  3 	 	 203 	 	 171 	 	 10 	 	 1551 	 	 1762 	 	 109 
  4 	 	 247 	 	 186 	 	 10 	 	 1357 	 	 1787 	 	 136 
  5 	 	 856 	 	 610 	 	 3 	 	 197 	 	 615 	 	 123 
  6 	 	 813 	 	 796 	 	 3 	 	 958 	 	 1262 	 	 145 
  7 	 	 42 	 	 122 	 	 5 	 	 640 	 	 974 	 	 177 
  8 	 	 358 	 	 185 	 	 10 	 	 25 	 	 380 	 	 124 
  9 	 	 711 	 	 585 	 	 3 	 	 190 	 	 592 	 	 178 
  10 	 	 675 	 	 578 	 	 7 	 	 869 	 	 1276 	 	 101 
  11 	 	 759 	 	 682 	 	 1 	 	 1482 	 	 1747 	 	 165 
  12 	 	 665 	 	 616 	 	 8 	 	 1470 	 	 1716 	 	 103 
  13 	 	 201 	 	 210 	 	 6 	 	 136 	 	 547 	 	 129 
  14 	 	 894 	 	 570 	 	 77 	 	 386 	 	 614 	 	 188 
  15 	 	 733 	 	 604 	 	 7 	 	 310 	 	 647 	 	 141 
  16 	 	 278 	 	 226 	 	 6 	 	 673 	 	 903 	 	 147 
  17 	 	 591 	 	 640 	 	 10 	 	 935 	 	 1163 	 	 146 
  18 	 	 182 	 	 169 	 	 9 	 	 1314 	 	 1633 	 	 175 
  19 	 	 219 	 	 187 	 	 54 	 	 23 	 	 462 	 	 192 
  20 	 	 701 	 	 647 	 	 8 	 	 452 	 	 653 	 	 150 
  21 	 	 848 	 	 623 	 	 1 	 	 193 	 	 406 	 	 158 
  22 	 	 828 	 	 667 	 	 99 	 	 1172 	 	 1435 	 	 125 
  23 	 	 870 	 	 632 	 	 2 	 	 932 	 	 1320 	 	 155 
  24 	 	 965 	 	 531 	 	 1 	 	 174 	 	 601 	 	 195 
  25 	 	 701 	 	 564 	 	 54 	 	 95 	 	 591 	 	 164 
  26 	 	 672 	 	 481 	 	 8 	 	 1442 	 	 1787 	 	 196 
  27 	 	 825 	 	 675 	 	 76 	 	 132 	 	 406 	 	 138 
  28 	 	 708 	 	 602 	 	 78 	 	 1564 	 	 1766 	 	 109 
  29 	 	 400 	 	 144 	 	 72 	 	 244 	 	 611 	 	 110 
  30 	 	 768 	 	 575 	 	 8 	 	 1420 	 	 1787 	 	 107 
  31 	 	 664 	 	 737 	 	 90 	 	 85 	 	 317 	 	 153 
  32 	 	 909 	 	 638 	 	 9 	 	 1458 	 	 1787 	 	 112 
  33 	 	 703 	 	 737 	 	 7 	 	 294 	 	 635 	 	 100 
  34 	 	 293 	 	 134 	 	 6 	 	 1131 	 	 1468 	 	 137 
  35 	 	 289 	 	 171 	 	 5 	 	 950 	 	 1279 	 	 199 
  36 	 	 265 	 	 202 	 	 7 	 	 1161 	 	 1517 	 	 117 
  37 	 	 209 	 	 120 	 	 6 	 	 230 	 	 526 	 	 160 
  38 	 	 82 	 	 146 	 	 9 	 	 959 	 	 1167 	 	 199 
  39 	 	 670 	 	 689 	 	 5 	 	 837 	 	 1229 	 	 181 
  40 	 	 278 	 	 177 	 	 7 	 	 1000 	 	 1220 	 	 141 
  41 	 	 821 	 	 633 	 	 78 	 	 1129 	 	 1576 	 	 129 
  42 	 	 718 	 	 570 	 	 90 	 	 1112 	 	 1574 	 	 166 
  43 	 	 176 	 	 182 	 	 7 	 	 671 	 	 1017 	 	 105 
  44 	 	 708 	 	 664 	 	 9 	 	 549 	 	 1018 	 	 144 
  45 	 	 761 	 	 577 	 	 7 	 	 517 	 	 869 	 	 196 
  46 	 	 190 	 	 179 	 	 87 	 	 1460 	 	 1787 	 	 192 
  47 	 	 927 	 	 696 	 	 9 	 	 285 	 	 516 	 	 181 
  48 	 	 848 	 	 555 	 	 95 	 	 654 	 	 952 	 	 114 
  49 	 	 671 	 	 590 	 	 8 	 	 1126 	 	 1393 	 	 198 
  50 	 	 799 	 	 571 	 	 9 	 	 701 	 	 1191 	 	 187 
  51 	 	 138 	 	 60 	 	 7 	 	 281 	 	 626 	 	 114 
  52 	 	 736 	 	 593 	 	 6 	 	 1492 	 	 1776 	 	 174 
  53 	 	 839 	 	 803 	 	 2 	 	 536 	 	 963 	 	 182 
  54 	 	 130 	 	 103 	 	 6 	 	 576 	 	 921 	 	 153 
  55 	 	 208 	 	 204 	 	 74 	 	 1065 	 	 1462 	 	 144 
  56 	 	 246 	 	 93 	 	 3 	 	 462 	 	 683 	 	 108 
  57 	 	 784 	 	 693 	 	 60 	 	 106 	 	 377 	 	 191 
  58 	 	 275 	 	 158 	 	 2 	 	 1 	 	 450 	 	 148 
  59 	 	 874 	 	 662 	 	 50 	 	 1153 	 	 1369 	 	 165 
  60 	 	 257 	 	 195 	 	 5 	 	 841 	 	 1230 	 	 142 
  61 	 	 100 	 	 193 	 	 8 	 	 99 	 	 554 	 	 132 
  62 	 	 760 	 	 633 	 	 2 	 	 1395 	 	 1787 	 	 108 
  63 	 	 880 	 	 658 	 	 2 	 	 1507 	 	 1787 	 	 135 
  64 	 	 830 	 	 679 	 	 9 	 	 668 	 	 1106 	 	 120 
  65 	 	 863 	 	 599 	 	 9 	 	 681 	 	 1160 	 	 107 
  66 	 	 277 	 	 85 	 	 98 	 	 590 	 	 1049 	 	 103 
  67 	 	 202 	 	 135 	 	 6 	 	 760 	 	 1007 	 	 152 
  68 	 	 737 	 	 584 	 	 9 	 	 180 	 	 565 	 	 123 
  69 	 	 214 	 	 168 	 	 8 	 	 673 	 	 1115 	 	 158 
  70 	 	 220 	 	 35 	 	 2 	 	 1131 	 	 1336 	 	 101 
  71 	 	 813 	 	 686 	 	 6 	 	 369 	 	 747 	 	 139 
  72 	 	 811 	 	 711 	 	 3 	 	 82 	 	 413 	 	 111 
  73 	 	 739 	 	 559 	 	 10 	 	 471 	 	 867 	 	 144 
  74 	 	 869 	 	 594 	 	 4 	 	 1438 	 	 1681 	 	 173 
  75 	 	 797 	 	 864 	 	 85 	 	 1302 	 	 1787 	 	 149 
  76 	 	 208 	 	 103 	 	 7 	 	 1343 	 	 1787 	 	 118 
  77 	 	 746 	 	 584 	 	 2 	 	 1483 	 	 1780 	 	 113 
  78 	 	 788 	 	 687 	 	 8 	 	 62 	 	 377 	 	 162 
  79 	 	 778 	 	 758 	 	 4 	 	 242 	 	 639 	 	 144 
  80 	 	 283 	 	 199 	 	 9 	 	 152 	 	 479 	 	 103 
  81 	 	 788 	 	 690 	 	 8 	 	 56 	 	 379 	 	 136 
  82 	 	 944 	 	 578 	 	 8 	 	 1518 	 	 1787 	 	 126 
  83 	 	 780 	 	 606 	 	 8 	 	 586 	 	 1007 	 	 170 
  84 	 	 835 	 	 616 	 	 5 	 	 934 	 	 1371 	 	 190 
  85 	 	 820 	 	 755 	 	 10 	 	 140 	 	 640 	 	 192 
  86 	 	 664 	 	 654 	 	 2 	 	 1256 	 	 1511 	 	 100 
  87 	 	 208 	 	 129 	 	 72 	 	 1261 	 	 1621 	 	 170 
  88 	 	 690 	 	 628 	 	 85 	 	 459 	 	 893 	 	 135 
  89 	 	 560 	 	 522 	 	 4 	 	 1062 	 	 1288 	 	 195 
  90 	 	 813 	 	 659 	 	 7 	 	 1452 	 	 1773 	 	 114 
  91 	 	 251 	 	 254 	 	 9 	 	 1503 	 	 1787 	 	 197 
  92 	 	 792 	 	 708 	 	 4 	 	 38 	 	 394 	 	 133 
  93 	 	 683 	 	 560 	 	 9 	 	 1499 	 	 1787 	 	 151 
  94 	 	 174 	 	 157 	 	 2 	 	 669 	 	 904 	 	 194 
  95 	 	 905 	 	 637 	 	 8 	 	 513 	 	 832 	 	 171 
  96 	 	 714 	 	 543 	 	 5 	 	 209 	 	 608 	 	 122 
  97 	 	 676 	 	 653 	 	 10 	 	 731 	 	 935 	 	 132 
  98 	 	 877 	 	 693 	 	 57 	 	 1515 	 	 1787 	 	 146 
  99 	 	 755 	 	 729 	 	 10 	 	 587 	 	 995 	 	 110 
  100 	 	 718 	 	 596 	 	 8 	 	 -141 	 	 300 	 	 182 
 